benchmarks_CP/INST_64x64/40/inst64x64_40_65.dzn
S=8;
start=[|
61,	-1,	48,	55,	15,	-1,	-1,	-1,	46,	13,	-1,	-1,	-1,	-1,	51,	-1,	-1,	10,	-1,	-1,	-1,	62,	45,	-1,	-1,	-1,	-1,	-1,	-1,	-1,	-1,	1,	-1,	-1,	38,	37,	39,	-1,	-1,	31,	20,	-1,	-1,	-1,	-1,	-1,	23,	25,	-1,	35,	22,	57,	-1,	-1,	-1,	-1,	-1,	14,	-1,	-1,	-1,	-1,	60,	-1|
-1,	-1,	-1,	53,	7,	-1,	2,	-1,	-1,	-1,	20,	57,	-1,	59,	-1,	44,	-1,	51,	-1,	-1,	-1,	-1,	-1,	-1,	-1,	23,	-1,	25,	14,	-1,	-1,	48,	-1,	47,	-1,	-1,	1,	26,	24,	-1,	-1,	-1,	62,	16,	50,	-1,	-1,	29,	-1,	-1,	61,	-1,	-1,	-1,	-1,	-1,	42,	-1,	34,	-1,	-1,	-1,	-1,	32|
50,	-1,	-1,	10,	28,	-1,	22,	8,	-1,	17,	48,	-1,	-1,	55,	-1,	-1,	-1,	-1,	-1,	-1,	49,	-1,	1,	5,	9,	-1,	37,	-1,	-1,	-1,	-1,	-1,	64,	-1,	-1,	-1,	-1,	-1,	-1,	35,	-1,	-1,	27,	33,	-1,	34,	-1,	60,	-1,	-1,	-1,	20,	-1,	-1,	36,	-1,	52,	58,	-1,	-1,	-1,	11,	-1,	-1|
59,	-1,	-1,	35,	13,	-1,	-1,	30,	-1,	41,	-1,	-1,	-1,	-1,	19,	58,	42,	56,	-1,	-1,	17,	-1,	-1,	-1,	52,	46,	-1,	43,	-1,	20,	-1,	22,	32,	-1,	-1,	-1,	-1,	11,	-1,	8,	2,	57,	-1,	36,	-1,	24,	-1,	37,	-1,	53,	-1,	4,	-1,	14,	-1,	-1,	-1,	26,	-1,	54,	64,	45,	-1,	-1|
-1,	-1,	26,	-1,	16,	-1,	4,	-1,	6,	45,	61,	-1,	27,	-1,	-1,	-1,	-1,	-1,	-1,	-1,	28,	-1,	39,	22,	-1,	-1,	51,	-1,	-1,	-1,	-1,	-1,	-1,	-1,	52,	-1,	13,	41,	34,	-1,	-1,	-1,	-1,	-1,	14,	-1,	18,	-1,	33,	40,	-1,	32,	-1,	-1,	-1,	-1,	53,	59,	2,	-1,	-1,	-1,	-1,	-1|
-1,	46,	-1,	-1,	6,	1,	32,	-1,	-1,	10,	4,	49,	-1,	-1,	11,	-1,	-1,	37,	-1,	19,	-1,	-1,	-1,	-1,	21,	42,	34,	-1,	-1,	7,	13,	44,	-1,	62,	-1,	-1,	12,	25,	-1,	-1,	61,	38,	-1,	30,	-1,	63,	-1,	-1,	59,	2,	-1,	60,	43,	50,	-1,	56,	-1,	24,	-1,	23,	16,	-1,	33,	22|
-1,	45,	49,	-1,	-1,	-1,	52,	-1,	-1,	-1,	-1,	-1,	2,	-1,	12,	-1,	-1,	-1,	24,	-1,	-1,	9,	60,	-1,	15,	-1,	-1,	17,	-1,	-1,	30,	62,	-1,	-1,	44,	14,	46,	-1,	16,	28,	-1,	40,	-1,	21,	-1,	-1,	-1,	-1,	37,	-1,	25,	-1,	-1,	55,	41,	58,	63,	29,	-1,	-1,	-1,	38,	-1,	-1|
54,	63,	37,	-1,	-1,	-1,	47,	-1,	-1,	30,	-1,	-1,	52,	-1,	-1,	-1,	-1,	4,	-1,	15,	-1,	-1,	-1,	-1,	55,	61,	31,	28,	-1,	-1,	-1,	36,	50,	56,	-1,	-1,	-1,	6,	27,	17,	53,	-1,	22,	58,	-1,	-1,	-1,	-1,	7,	-1,	38,	-1,	-1,	-1,	49,	9,	1,	-1,	48,	3,	12,	-1,	21,	-1|
-1,	-1,	-1,	-1,	-1,	-1,	-1,	-1,	7,	-1,	28,	-1,	-1,	-1,	-1,	-1,	-1,	59,	5,	-1,	30,	-1,	-1,	-1,	8,	-1,	13,	20,	-1,	-1,	-1,	-1,	-1,	-1,	-1,	49,	62,	-1,	-1,	-1,	-1,	-1,	-1,	-1,	-1,	-1,	-1,	-1,	-1,	33,	-1,	-1,	57,	21,	45,	-1,	55,	52,	-1,	-1,	-1,	37,	-1,	-1|
37,	17,	-1,	-1,	-1,	-1,	-1,	9,	-1,	-1,	-1,	-1,	5,	-1,	-1,	40,	62,	-1,	-1,	64,	-1,	-1,	38,	-1,	61,	-1,	-1,	-1,	47,	-1,	-1,	55,	-1,	-1,	-1,	-1,	58,	24,	-1,	10,	-1,	32,	-1,	-1,	-1,	52,	-1,	4,	-1,	29,	-1,	18,	-1,	-1,	43,	-1,	-1,	20,	-1,	-1,	-1,	-1,	50,	-1|
-1,	-1,	-1,	44,	-1,	52,	-1,	-1,	12,	-1,	-1,	-1,	-1,	50,	25,	16,	-1,	-1,	54,	36,	42,	-1,	31,	27,	-1,	-1,	-1,	-1,	-1,	39,	24,	2,	-1,	57,	-1,	-1,	9,	-1,	3,	37,	-1,	47,	-1,	-1,	-1,	-1,	21,	40,	-1,	61,	-1,	11,	13,	-1,	-1,	34,	-1,	-1,	-1,	-1,	-1,	-1,	-1,	-1|
-1,	7,	53,	-1,	-1,	-1,	-1,	16,	-1,	6,	63,	31,	-1,	54,	-1,	60,	46,	-1,	-1,	-1,	-1,	-1,	18,	-1,	64,	44,	-1,	-1,	-1,	-1,	1,	-1,	12,	-1,	8,	17,	-1,	-1,	4,	50,	-1,	-1,	-1,	-1,	-1,	-1,	10,	-1,	-1,	-1,	-1,	-1,	-1,	5,	-1,	59,	-1,	-1,	23,	-1,	-1,	-1,	-1,	48|
-1,	40,	-1,	-1,	-1,	12,	-1,	-1,	45,	-1,	-1,	-1,	-1,	29,	-1,	-1,	-1,	-1,	-1,	28,	-1,	51,	-1,	-1,	42,	37,	-1,	14,	-1,	-1,	-1,	15,	-1,	52,	-1,	47,	-1,	16,	-1,	54,	-1,	31,	58,	-1,	49,	-1,	-1,	22,	62,	38,	23,	-1,	-1,	-1,	-1,	-1,	-1,	8,	-1,	64,	-1,	-1,	-1,	-1|
15,	-1,	-1,	-1,	-1,	45,	-1,	23,	26,	52,	-1,	-1,	-1,	-1,	47,	22,	-1,	-1,	60,	-1,	-1,	24,	49,	-1,	-1,	-1,	-1,	58,	-1,	32,	12,	54,	-1,	-1,	64,	-1,	-1,	21,	-1,	-1,	-1,	8,	16,	37,	-1,	56,	57,	-1,	17,	55,	-1,	48,	-1,	42,	1,	6,	-1,	25,	-1,	-1,	-1,	-1,	14,	51|
13,	-1,	-1,	-1,	-1,	39,	5,	-1,	58,	44,	-1,	24,	-1,	-1,	57,	41,	-1,	11,	-1,	-1,	-1,	-1,	37,	-1,	-1,	21,	-1,	-1,	-1,	3,	-1,	-1,	-1,	42,	-1,	-1,	-1,	-1,	-1,	15,	-1,	-1,	30,	-1,	-1,	-1,	50,	9,	40,	7,	46,	-1,	8,	-1,	-1,	-1,	-1,	53,	-1,	-1,	-1,	-1,	-1,	18|
-1,	-1,	1,	-1,	-1,	-1,	-1,	-1,	-1,	-1,	8,	-1,	61,	-1,	48,	-1,	13,	-1,	-1,	-1,	-1,	-1,	4,	-1,	-1,	-1,	10,	50,	-1,	5,	-1,	-1,	20,	-1,	31,	-1,	32,	-1,	11,	-1,	-1,	-1,	24,	-1,	-1,	-1,	59,	-1,	-1,	-1,	-1,	-1,	56,	-1,	-1,	54,	41,	39,	-1,	-1,	-1,	63,	-1,	7|
40,	26,	-1,	-1,	-1,	-1,	-1,	11,	-1,	-1,	-1,	60,	-1,	-1,	-1,	-1,	-1,	23,	-1,	-1,	25,	-1,	54,	-1,	-1,	-1,	-1,	-1,	-1,	-1,	34,	8,	-1,	-1,	47,	-1,	-1,	61,	-1,	-1,	16,	-1,	-1,	32,	-1,	-1,	46,	-1,	-1,	41,	-1,	-1,	-1,	-1,	21,	5,	19,	-1,	20,	-1,	-1,	12,	29,	42|
-1,	49,	-1,	-1,	-1,	-1,	-1,	-1,	11,	-1,	-1,	48,	-1,	57,	-1,	-1,	14,	62,	-1,	-1,	4,	44,	19,	-1,	-1,	-1,	47,	1,	-1,	-1,	-1,	18,	59,	28,	41,	52,	-1,	39,	-1,	21,	42,	3,	5,	61,	8,	-1,	-1,	-1,	-1,	-1,	-1,	-1,	16,	-1,	-1,	-1,	-1,	-1,	60,	-1,	2,	54,	43,	-1|
-1,	-1,	-1,	-1,	30,	-1,	-1,	-1,	23,	-1,	-1,	-1,	-1,	-1,	-1,	-1,	39,	-1,	-1,	2,	-1,	-1,	17,	37,	-1,	-1,	-1,	53,	-1,	-1,	-1,	-1,	-1,	-1,	-1,	15,	-1,	38,	51,	16,	-1,	36,	-1,	19,	-1,	58,	25,	-1,	10,	-1,	-1,	-1,	59,	-1,	-1,	3,	-1,	28,	4,	-1,	27,	34,	32,	49|
-1,	19,	51,	-1,	56,	-1,	-1,	43,	3,	46,	-1,	-1,	-1,	62,	34,	-1,	40,	47,	28,	-1,	-1,	36,	-1,	12,	-1,	13,	58,	29,	9,	-1,	-1,	-1,	-1,	-1,	-1,	-1,	-1,	-1,	50,	30,	-1,	-1,	-1,	6,	-1,	26,	-1,	-1,	8,	-1,	-1,	-1,	-1,	-1,	-1,	7,	37,	-1,	21,	55,	-1,	41,	-1,	-1|
12,	35,	58,	5,	-1,	-1,	-1,	-1,	20,	36,	-1,	-1,	-1,	-1,	15,	-1,	-1,	64,	45,	-1,	-1,	-1,	43,	-1,	-1,	-1,	26,	-1,	-1,	-1,	-1,	-1,	-1,	-1,	-1,	53,	-1,	-1,	31,	-1,	-1,	30,	-1,	38,	-1,	-1,	-1,	-1,	-1,	-1,	-1,	-1,	63,	-1,	-1,	2,	56,	3,	-1,	48,	-1,	39,	-1,	-1|
-1,	47,	-1,	-1,	-1,	60,	-1,	-1,	-1,	-1,	44,	-1,	41,	16,	-1,	1,	-1,	6,	49,	26,	34,	21,	22,	-1,	48,	5,	56,	-1,	-1,	38,	50,	33,	-1,	-1,	12,	-1,	40,	36,	20,	-1,	-1,	23,	-1,	43,	28,	-1,	51,	54,	24,	30,	-1,	-1,	4,	-1,	-1,	-1,	-1,	-1,	9,	-1,	61,	52,	-1,	11|
-1,	-1,	-1,	4,	41,	-1,	20,	-1,	-1,	-1,	49,	-1,	-1,	-1,	31,	-1,	-1,	-1,	-1,	52,	-1,	-1,	-1,	42,	-1,	51,	-1,	-1,	-1,	61,	-1,	-1,	-1,	23,	54,	5,	-1,	-1,	-1,	26,	50,	48,	-1,	-1,	-1,	22,	60,	-1,	36,	-1,	-1,	-1,	-1,	9,	56,	13,	-1,	-1,	-1,	58,	-1,	-1,	8,	-1|
-1,	53,	17,	-1,	-1,	2,	50,	42,	-1,	-1,	-1,	-1,	-1,	-1,	32,	-1,	-1,	55,	-1,	59,	-1,	-1,	5,	60,	3,	-1,	-1,	-1,	-1,	-1,	41,	12,	-1,	48,	-1,	-1,	35,	27,	-1,	-1,	-1,	-1,	-1,	11,	52,	-1,	14,	31,	25,	15,	-1,	-1,	-1,	33,	-1,	-1,	-1,	-1,	47,	-1,	-1,	22,	-1,	-1|
-1,	64,	41,	-1,	35,	-1,	10,	-1,	-1,	40,	-1,	29,	-1,	-1,	-1,	-1,	-1,	-1,	34,	60,	38,	17,	6,	-1,	-1,	-1,	54,	-1,	26,	-1,	-1,	53,	46,	-1,	-1,	57,	61,	63,	39,	-1,	-1,	22,	-1,	25,	18,	-1,	27,	11,	14,	-1,	28,	-1,	-1,	-1,	-1,	8,	32,	47,	-1,	15,	-1,	20,	-1,	-1|
22,	-1,	-1,	-1,	24,	43,	-1,	54,	41,	-1,	-1,	6,	-1,	28,	-1,	-1,	63,	-1,	7,	4,	-1,	42,	-1,	9,	44,	15,	-1,	30,	64,	-1,	-1,	-1,	-1,	-1,	-1,	10,	-1,	-1,	-1,	34,	-1,	-1,	51,	-1,	62,	49,	-1,	20,	-1,	-1,	-1,	45,	-1,	-1,	-1,	18,	-1,	13,	8,	2,	36,	-1,	-1,	-1|
47,	-1,	11,	-1,	-1,	3,	-1,	59,	-1,	-1,	-1,	-1,	34,	-1,	4,	-1,	54,	-1,	32,	-1,	56,	-1,	25,	13,	-1,	-1,	-1,	-1,	21,	14,	-1,	43,	-1,	-1,	-1,	-1,	-1,	53,	-1,	62,	-1,	-1,	8,	17,	-1,	-1,	15,	-1,	2,	9,	58,	-1,	27,	-1,	-1,	-1,	-1,	16,	30,	10,	-1,	5,	41,	-1|
58,	-1,	14,	-1,	63,	-1,	-1,	27,	-1,	-1,	-1,	-1,	47,	-1,	43,	-1,	-1,	40,	-1,	37,	-1,	-1,	59,	41,	-1,	-1,	-1,	-1,	-1,	-1,	42,	-1,	33,	64,	-1,	-1,	-1,	-1,	-1,	-1,	30,	-1,	52,	2,	6,	10,	-1,	36,	-1,	16,	-1,	-1,	1,	17,	-1,	-1,	-1,	-1,	28,	-1,	60,	-1,	62,	23|
-1,	-1,	-1,	-1,	-1,	-1,	1,	-1,	-1,	3,	-1,	8,	-1,	22,	-1,	25,	-1,	36,	23,	-1,	62,	-1,	24,	-1,	47,	-1,	-1,	-1,	35,	-1,	-1,	-1,	-1,	15,	-1,	-1,	-1,	-1,	-1,	-1,	-1,	41,	-1,	-1,	-1,	-1,	-1,	-1,	64,	39,	43,	-1,	-1,	-1,	-1,	-1,	-1,	-1,	56,	14,	-1,	-1,	-1,	-1|
-1,	-1,	18,	34,	60,	50,	-1,	-1,	-1,	27,	-1,	7,	-1,	49,	26,	-1,	-1,	-1,	-1,	-1,	-1,	-1,	-1,	-1,	-1,	-1,	6,	-1,	62,	-1,	37,	-1,	-1,	-1,	-1,	-1,	-1,	-1,	-1,	-1,	-1,	-1,	-1,	54,	1,	-1,	-1,	-1,	35,	-1,	-1,	-1,	-1,	38,	-1,	-1,	-1,	-1,	-1,	-1,	24,	25,	-1,	-1|
-1,	-1,	-1,	23,	-1,	-1,	-1,	-1,	-1,	-1,	14,	-1,	-1,	56,	-1,	-1,	-1,	-1,	50,	-1,	-1,	-1,	52,	51,	24,	32,	-1,	-1,	58,	-1,	7,	60,	-1,	59,	36,	-1,	27,	-1,	38,	41,	46,	-1,	34,	-1,	21,	-1,	61,	64,	11,	22,	47,	-1,	-1,	-1,	54,	44,	43,	9,	-1,	18,	-1,	48,	-1,	-1|
25,	6,	-1,	-1,	39,	-1,	-1,	29,	48,	62,	59,	13,	-1,	-1,	54,	46,	-1,	30,	-1,	14,	21,	47,	57,	-1,	12,	-1,	-1,	31,	27,	51,	10,	9,	-1,	-1,	18,	11,	-1,	22,	-1,	-1,	40,	-1,	42,	-1,	16,	-1,	53,	-1,	-1,	63,	41,	-1,	-1,	-1,	-1,	-1,	4,	-1,	49,	-1,	-1,	-1,	7,	-1|
35,	4,	12,	-1,	62,	5,	-1,	15,	-1,	2,	31,	63,	33,	-1,	36,	-1,	52,	-1,	-1,	38,	1,	8,	41,	30,	10,	-1,	9,	-1,	-1,	13,	39,	-1,	11,	-1,	-1,	54,	-1,	14,	-1,	61,	-1,	-1,	-1,	-1,	26,	59,	-1,	32,	-1,	28,	55,	-1,	40,	-1,	-1,	-1,	20,	-1,	-1,	29,	17,	-1,	-1,	-1|
2,	-1,	-1,	45,	-1,	-1,	-1,	17,	-1,	-1,	39,	64,	-1,	-1,	-1,	-1,	-1,	-1,	29,	7,	14,	-1,	-1,	36,	-1,	-1,	15,	-1,	-1,	-1,	-1,	32,	10,	-1,	-1,	-1,	-1,	44,	-1,	57,	52,	27,	-1,	31,	-1,	25,	24,	8,	-1,	-1,	-1,	50,	38,	-1,	48,	-1,	34,	-1,	55,	12,	62,	-1,	-1,	46|
21,	32,	47,	-1,	-1,	-1,	-1,	-1,	-1,	26,	54,	10,	-1,	25,	-1,	13,	-1,	15,	-1,	24,	53,	-1,	58,	-1,	-1,	-1,	-1,	-1,	8,	37,	33,	3,	-1,	-1,	27,	38,	5,	-1,	9,	36,	55,	-1,	-1,	-1,	-1,	-1,	-1,	63,	-1,	-1,	31,	-1,	-1,	-1,	7,	-1,	-1,	-1,	42,	-1,	48,	-1,	52,	61|
-1,	-1,	-1,	33,	43,	-1,	-1,	7,	62,	-1,	55,	16,	-1,	-1,	-1,	-1,	-1,	3,	-1,	-1,	-1,	19,	2,	-1,	-1,	1,	22,	-1,	-1,	-1,	-1,	-1,	-1,	30,	-1,	-1,	4,	8,	49,	-1,	-1,	-1,	-1,	48,	-1,	6,	-1,	-1,	-1,	24,	-1,	9,	-1,	-1,	-1,	41,	-1,	-1,	-1,	-1,	-1,	26,	-1,	-1|
-1,	-1,	3,	-1,	61,	-1,	-1,	-1,	52,	8,	-1,	19,	-1,	-1,	-1,	-1,	57,	-1,	25,	-1,	-1,	49,	-1,	-1,	-1,	55,	-1,	36,	-1,	-1,	-1,	24,	-1,	-1,	-1,	-1,	-1,	15,	12,	-1,	-1,	7,	2,	53,	46,	-1,	-1,	-1,	-1,	-1,	-1,	-1,	62,	4,	-1,	32,	33,	54,	40,	-1,	-1,	16,	51,	-1|
-1,	8,	-1,	-1,	54,	-1,	31,	46,	-1,	51,	30,	-1,	4,	-1,	44,	-1,	-1,	-1,	-1,	45,	-1,	23,	55,	-1,	20,	-1,	53,	-1,	43,	12,	40,	42,	-1,	-1,	-1,	56,	-1,	59,	-1,	-1,	-1,	9,	-1,	-1,	-1,	50,	-1,	-1,	49,	18,	-1,	5,	-1,	-1,	58,	-1,	25,	-1,	6,	-1,	-1,	-1,	-1,	2|
-1,	13,	-1,	40,	25,	58,	-1,	39,	-1,	-1,	-1,	-1,	-1,	45,	-1,	-1,	50,	-1,	51,	9,	-1,	-1,	-1,	-1,	-1,	-1,	-1,	61,	-1,	62,	-1,	-1,	-1,	35,	17,	-1,	55,	52,	2,	53,	12,	54,	1,	-1,	34,	-1,	33,	-1,	-1,	46,	-1,	27,	-1,	-1,	-1,	-1,	7,	-1,	-1,	8,	-1,	44,	-1,	36|
-1,	36,	-1,	-1,	26,	-1,	-1,	-1,	-1,	-1,	-1,	59,	-1,	3,	17,	-1,	-1,	33,	-1,	-1,	-1,	18,	62,	16,	-1,	14,	-1,	-1,	2,	48,	-1,	-1,	-1,	7,	40,	-1,	-1,	-1,	-1,	-1,	-1,	-1,	-1,	49,	-1,	-1,	28,	-1,	-1,	-1,	8,	39,	25,	-1,	57,	-1,	-1,	63,	58,	-1,	32,	-1,	-1,	5|
-1,	-1,	-1,	-1,	4,	-1,	6,	-1,	47,	-1,	46,	44,	45,	-1,	59,	-1,	19,	-1,	-1,	-1,	-1,	-1,	34,	-1,	1,	-1,	-1,	-1,	-1,	-1,	64,	-1,	-1,	-1,	24,	29,	-1,	-1,	-1,	-1,	39,	58,	-1,	35,	31,	-1,	20,	18,	-1,	-1,	17,	-1,	-1,	-1,	30,	63,	13,	21,	-1,	-1,	7,	23,	36,	-1|
-1,	62,	60,	-1,	45,	-1,	17,	-1,	9,	-1,	-1,	-1,	-1,	33,	-1,	48,	3,	-1,	-1,	-1,	24,	-1,	10,	-1,	29,	-1,	-1,	-1,	56,	-1,	-1,	-1,	-1,	-1,	-1,	-1,	-1,	-1,	-1,	13,	21,	-1,	19,	-1,	-1,	-1,	-1,	-1,	-1,	11,	-1,	44,	-1,	-1,	-1,	-1,	-1,	-1,	-1,	20,	-1,	-1,	-1,	-1|
5,	-1,	-1,	-1,	2,	-1,	-1,	1,	-1,	-1,	-1,	-1,	-1,	-1,	16,	10,	43,	39,	-1,	61,	-1,	-1,	64,	-1,	40,	41,	63,	-1,	-1,	-1,	-1,	-1,	6,	-1,	-1,	-1,	20,	-1,	-1,	44,	-1,	50,	-1,	-1,	-1,	30,	-1,	53,	-1,	56,	-1,	-1,	-1,	25,	29,	27,	-1,	-1,	54,	-1,	38,	-1,	-1,	60|
28,	48,	42,	58,	-1,	-1,	-1,	57,	32,	-1,	21,	-1,	14,	-1,	55,	2,	-1,	-1,	-1,	8,	13,	-1,	-1,	54,	-1,	-1,	-1,	-1,	-1,	-1,	-1,	20,	-1,	-1,	-1,	62,	-1,	-1,	-1,	-1,	-1,	64,	56,	-1,	9,	16,	-1,	46,	-1,	3,	36,	-1,	-1,	-1,	39,	26,	29,	-1,	-1,	-1,	-1,	-1,	-1,	15|
-1,	59,	-1,	-1,	37,	-1,	-1,	35,	60,	-1,	-1,	-1,	-1,	-1,	49,	-1,	5,	-1,	-1,	-1,	41,	-1,	-1,	38,	-1,	2,	-1,	34,	46,	30,	55,	-1,	58,	51,	-1,	33,	-1,	56,	-1,	11,	57,	-1,	-1,	-1,	-1,	62,	40,	-1,	-1,	-1,	-1,	64,	-1,	-1,	-1,	-1,	-1,	-1,	-1,	27,	-1,	-1,	-1,	16|
8,	21,	-1,	-1,	18,	-1,	-1,	-1,	-1,	-1,	34,	51,	-1,	-1,	-1,	29,	59,	-1,	53,	47,	-1,	50,	-1,	-1,	-1,	-1,	44,	-1,	13,	-1,	16,	5,	-1,	12,	42,	-1,	-1,	-1,	-1,	63,	15,	2,	-1,	-1,	32,	-1,	-1,	41,	-1,	45,	-1,	54,	-1,	-1,	-1,	-1,	-1,	33,	17,	-1,	22,	-1,	-1,	25|
-1,	54,	19,	-1,	52,	-1,	55,	-1,	-1,	-1,	-1,	3,	35,	-1,	-1,	43,	-1,	29,	-1,	-1,	-1,	-1,	9,	-1,	-1,	18,	-1,	57,	-1,	45,	-1,	31,	-1,	4,	-1,	-1,	-1,	-1,	-1,	-1,	-1,	-1,	-1,	-1,	37,	-1,	-1,	12,	-1,	50,	-1,	-1,	-1,	13,	16,	-1,	-1,	-1,	5,	49,	10,	40,	47,	-1|
-1,	-1,	24,	-1,	32,	-1,	-1,	-1,	18,	-1,	-1,	-1,	-1,	64,	-1,	36,	-1,	60,	-1,	25,	-1,	16,	-1,	-1,	-1,	33,	-1,	21,	-1,	-1,	-1,	-1,	55,	46,	-1,	-1,	-1,	-1,	-1,	47,	-1,	-1,	-1,	-1,	10,	-1,	-1,	27,	-1,	-1,	9,	-1,	34,	-1,	6,	57,	-1,	-1,	-1,	-1,	50,	-1,	-1,	56|
-1,	23,	56,	-1,	-1,	-1,	-1,	48,	-1,	-1,	27,	-1,	36,	-1,	-1,	12,	60,	-1,	-1,	-1,	-1,	-1,	40,	-1,	-1,	-1,	-1,	-1,	45,	-1,	53,	37,	44,	13,	-1,	-1,	-1,	-1,	-1,	-1,	-1,	21,	26,	-1,	-1,	-1,	38,	-1,	32,	58,	-1,	-1,	-1,	22,	-1,	-1,	-1,	-1,	-1,	-1,	55,	14,	-1,	9|
-1,	-1,	36,	-1,	34,	35,	-1,	-1,	31,	11,	9,	43,	-1,	-1,	-1,	-1,	10,	5,	-1,	-1,	-1,	-1,	-1,	-1,	-1,	-1,	-1,	54,	44,	-1,	-1,	49,	24,	-1,	-1,	-1,	-1,	28,	45,	-1,	56,	-1,	32,	59,	58,	-1,	-1,	17,	51,	57,	29,	13,	-1,	1,	-1,	-1,	-1,	37,	-1,	40,	47,	60,	-1,	63|
-1,	24,	-1,	-1,	-1,	-1,	-1,	-1,	-1,	60,	-1,	-1,	-1,	40,	5,	61,	53,	38,	-1,	29,	-1,	20,	-1,	62,	58,	28,	-1,	55,	-1,	-1,	-1,	-1,	-1,	-1,	-1,	-1,	-1,	17,	-1,	-1,	47,	-1,	37,	-1,	7,	-1,	16,	-1,	-1,	-1,	-1,	34,	-1,	-1,	-1,	21,	57,	-1,	32,	-1,	-1,	-1,	25,	-1|
30,	29,	-1,	-1,	58,	-1,	3,	33,	2,	59,	-1,	-1,	-1,	21,	46,	-1,	-1,	-1,	15,	-1,	-1,	63,	-1,	49,	-1,	-1,	-1,	-1,	-1,	-1,	6,	57,	-1,	-1,	-1,	-1,	36,	-1,	61,	48,	-1,	-1,	18,	42,	60,	-1,	-1,	50,	47,	-1,	27,	14,	-1,	-1,	53,	43,	-1,	-1,	45,	-1,	-1,	62,	5,	8|
-1,	-1,	-1,	-1,	-1,	-1,	40,	22,	-1,	-1,	-1,	-1,	-1,	42,	-1,	35,	-1,	-1,	-1,	46,	52,	59,	8,	-1,	32,	36,	30,	10,	20,	-1,	18,	11,	53,	-1,	39,	-1,	19,	-1,	-1,	58,	4,	-1,	-1,	-1,	-1,	-1,	-1,	3,	-1,	23,	-1,	-1,	-1,	-1,	-1,	16,	-1,	-1,	-1,	17,	-1,	-1,	-1,	29|
10,	-1,	44,	-1,	9,	-1,	-1,	5,	-1,	16,	-1,	-1,	39,	37,	-1,	-1,	18,	-1,	-1,	17,	-1,	25,	42,	7,	34,	-1,	-1,	-1,	-1,	60,	2,	47,	-1,	32,	-1,	-1,	-1,	-1,	-1,	29,	-1,	-1,	46,	23,	13,	11,	-1,	-1,	-1,	36,	45,	-1,	26,	20,	62,	-1,	58,	-1,	35,	-1,	59,	-1,	-1,	6|
38,	-1,	21,	-1,	17,	-1,	57,	45,	33,	-1,	-1,	-1,	10,	-1,	6,	30,	56,	-1,	-1,	-1,	-1,	61,	-1,	-1,	-1,	-1,	-1,	-1,	3,	-1,	-1,	-1,	52,	11,	23,	12,	-1,	-1,	-1,	25,	31,	-1,	-1,	40,	35,	48,	-1,	-1,	-1,	60,	-1,	-1,	-1,	37,	-1,	46,	-1,	-1,	-1,	28,	-1,	36,	-1,	-1|
32,	-1,	-1,	-1,	-1,	14,	60,	2,	-1,	53,	-1,	34,	-1,	47,	-1,	3,	6,	-1,	-1,	-1,	12,	-1,	21,	-1,	-1,	-1,	-1,	35,	22,	-1,	15,	26,	-1,	-1,	-1,	-1,	-1,	20,	-1,	-1,	36,	-1,	-1,	10,	-1,	-1,	-1,	-1,	-1,	-1,	-1,	25,	39,	-1,	-1,	-1,	18,	30,	13,	1,	33,	46,	-1,	-1|
52,	30,	-1,	-1,	-1,	28,	-1,	-1,	50,	55,	-1,	-1,	-1,	-1,	-1,	-1,	-1,	-1,	44,	-1,	-1,	2,	-1,	-1,	6,	39,	-1,	-1,	-1,	-1,	-1,	-1,	-1,	-1,	-1,	-1,	-1,	-1,	-1,	9,	51,	-1,	7,	41,	23,	57,	47,	-1,	3,	-1,	-1,	-1,	35,	-1,	63,	-1,	49,	-1,	-1,	-1,	42,	29,	-1,	-1|
63,	43,	55,	19,	-1,	-1,	35,	-1,	-1,	-1,	25,	-1,	-1,	-1,	13,	31,	58,	26,	40,	5,	-1,	-1,	-1,	-1,	14,	50,	-1,	44,	53,	-1,	29,	-1,	-1,	-1,	-1,	48,	28,	54,	-1,	-1,	-1,	-1,	-1,	-1,	39,	45,	-1,	6,	-1,	-1,	56,	-1,	-1,	-1,	-1,	22,	-1,	-1,	-1,	-1,	-1,	-1,	-1,	52|
56,	-1,	59,	47,	-1,	-1,	9,	-1,	64,	14,	19,	-1,	16,	-1,	-1,	-1,	-1,	-1,	-1,	-1,	-1,	32,	-1,	-1,	-1,	-1,	-1,	-1,	-1,	2,	-1,	-1,	36,	-1,	-1,	-1,	-1,	-1,	-1,	-1,	13,	60,	-1,	28,	22,	33,	-1,	21,	-1,	-1,	1,	15,	-1,	-1,	31,	-1,	-1,	55,	-1,	-1,	41,	35,	58,	40|
-1,	-1,	-1,	-1,	-1,	-1,	-1,	6,	-1,	48,	-1,	2,	-1,	-1,	42,	-1,	9,	-1,	-1,	-1,	-1,	35,	51,	-1,	-1,	-1,	-1,	-1,	7,	-1,	28,	-1,	27,	39,	49,	31,	63,	58,	-1,	-1,	-1,	26,	-1,	-1,	-1,	8,	-1,	43,	-1,	-1,	-1,	-1,	-1,	-1,	-1,	33,	-1,	-1,	50,	16,	-1,	-1,	-1,	13|
-1,	-1,	40,	-1,	53,	46,	24,	-1,	-1,	4,	41,	-1,	44,	-1,	-1,	-1,	47,	-1,	27,	50,	-1,	-1,	-1,	52,	51,	58,	25,	-1,	15,	-1,	19,	13,	26,	-1,	-1,	-1,	-1,	57,	-1,	-1,	-1,	-1,	-1,	-1,	-1,	-1,	-1,	10,	-1,	14,	16,	59,	54,	-1,	-1,	-1,	-1,	36,	-1,	-1,	43,	-1,	12,	20|
-1,	-1,	22,	29,	-1,	-1,	-1,	-1,	-1,	-1,	3,	-1,	-1,	12,	8,	63,	-1,	43,	-1,	-1,	39,	-1,	36,	1,	-1,	40,	-1,	-1,	-1,	17,	-1,	-1,	56,	-1,	-1,	35,	42,	-1,	-1,	-1,	5,	19,	53,	-1,	27,	32,	-1,	48,	-1,	37,	13,	61,	-1,	-1,	-1,	25,	-1,	-1,	-1,	-1,	26,	-1,	6,	47|
51,	2,	-1,	-1,	48,	-1,	16,	-1,	-1,	-1,	-1,	15,	-1,	-1,	-1,	-1,	-1,	-1,	55,	-1,	37,	-1,	53,	28,	-1,	35,	-1,	-1,	-1,	-1,	-1,	-1,	47,	-1,	-1,	41,	-1,	30,	21,	40,	63,	-1,	-1,	52,	-1,	-1,	-1,	24,	34,	-1,	19,	-1,	45,	58,	46,	-1,	9,	23,	57,	-1,	-1,	56,	-1,	44|
-1,	34,	-1,	-1,	-1,	-1,	-1,	-1,	43,	-1,	40,	37,	-1,	32,	-1,	-1,	-1,	-1,	64,	13,	-1,	-1,	12,	-1,	-1,	-1,	-1,	-1,	31,	-1,	-1,	63,	16,	-1,	-1,	1,	59,	-1,	29,	-1,	-1,	14,	20,	-1,	-1,	46,	-1,	-1,	53,	-1,	-1,	-1,	-1,	2,	-1,	-1,	24,	48,	-1,	51,	-1,	15,	-1,	-1|];
