sudoku-ls/benchmarks_LEQ/INST_64x64/40/inst64x64_40_65.txt
8
1
-1	11	-1	-1	-1	44	-1	64	-1	-1	16	-1	24	-1	-1	-1	-1	-1	-1	-1	27	-1	45	34	-1	53	-1	2	6	-1	32	-1	54	40	-1	37	39	-1	63	-1	-1	52	-1	-1	5	-1	-1	-1	30	-1	-1	57	-1	-1	42	-1	-1	-1	43	-1	19	-1	60	-1
-1	56	-1	53	-1	-1	-1	21	22	-1	-1	-1	-1	-1	40	44	-1	51	31	-1	35	-1	-1	63	-1	-1	8	-1	-1	27	-1	-1	18	-1	-1	-1	-1	-1	24	60	-1	55	62	16	50	15	-1	29	-1	-1	-1	19	-1	-1	-1	-1	42	-1	-1	5	-1	30	37	32
-1	39	-1	10	-1	-1	-1	-1	-1	17	-1	-1	-1	-1	-1	15	-1	2	61	-1	-1	57	-1	-1	9	-1	37	-1	-1	-1	-1	16	-1	21	53	-1	30	-1	-1	35	-1	46	27	33	-1	34	-1	60	-1	13	-1	-1	24	-1	-1	29	-1	58	7	-1	-1	11	56	-1
-1	-1	34	-1	-1	-1	27	-1	-1	-1	-1	50	7	-1	-1	-1	-1	-1	-1	-1	17	-1	-1	-1	-1	-1	-1	-1	-1	-1	3	-1	-1	-1	-1	-1	-1	11	-1	8	-1	57	-1	-1	12	-1	-1	-1	-1	-1	-1	-1	51	14	-1	1	44	-1	-1	-1	-1	-1	-1	-1
-1	-1	-1	-1	16	31	-1	-1	-1	-1	-1	-1	27	63	21	37	30	-1	-1	-1	-1	-1	39	22	-1	57	51	38	-1	29	49	58	19	-1	52	-1	-1	-1	34	-1	-1	42	-1	-1	-1	-1	18	1	-1	-1	62	-1	-1	-1	-1	-1	-1	-1	2	-1	-1	-1	-1	-1
-1	-1	57	14	6	-1	32	-1	-1	-1	-1	-1	28	31	11	64	26	-1	-1	19	-1	-1	-1	-1	-1	-1	34	-1	-1	-1	-1	-1	-1	62	-1	-1	12	-1	-1	20	-1	-1	48	-1	51	63	9	35	59	2	-1	-1	43	-1	8	56	-1	24	-1	23	-1	18	-1	-1
-1	45	-1	-1	-1	-1	52	-1	-1	-1	-1	-1	-1	1	-1	-1	36	-1	-1	6	8	-1	-1	-1	-1	64	5	-1	-1	-1	-1	-1	22	-1	-1	-1	46	-1	-1	28	-1	40	-1	-1	-1	-1	-1	26	37	-1	-1	-1	23	-1	-1	58	63	29	-1	57	-1	-1	13	35
-1	-1	-1	42	-1	-1	-1	-1	35	-1	-1	-1	-1	-1	-1	62	-1	-1	-1	-1	18	-1	44	32	-1	61	31	-1	-1	10	60	36	-1	-1	-1	-1	-1	6	-1	17	-1	-1	-1	-1	64	13	-1	-1	7	-1	38	-1	11	-1	49	-1	-1	-1	48	3	-1	8	-1	-1
-1	-1	-1	-1	-1	-1	-1	-1	7	-1	-1	-1	11	-1	-1	18	-1	-1	-1	-1	-1	-1	-1	-1	8	-1	-1	-1	-1	-1	-1	-1	35	53	22	-1	-1	-1	-1	-1	-1	-1	-1	12	61	-1	29	2	44	33	63	-1	57	-1	45	39	55	-1	-1	42	15	-1	-1	-1
-1	17	-1	-1	-1	-1	-1	9	1	23	15	-1	5	34	-1	-1	-1	-1	-1	64	45	-1	-1	14	61	56	16	22	47	28	-1	-1	-1	-1	-1	51	-1	24	33	10	7	32	-1	13	53	-1	-1	4	60	-1	-1	18	31	41	-1	-1	-1	20	-1	-1	-1	57	50	-1
-1	14	-1	-1	55	52	51	62	-1	-1	-1	53	64	-1	25	-1	-1	8	-1	-1	-1	1	-1	27	23	63	-1	18	41	39	-1	-1	-1	-1	-1	-1	9	-1	-1	-1	-1	-1	-1	46	-1	35	-1	40	-1	61	-1	-1	13	-1	-1	34	-1	-1	-1	60	-1	6	26	-1
-1	-1	-1	56	-1	-1	-1	16	-1	-1	-1	-1	37	54	62	-1	-1	21	-1	57	-1	22	-1	-1	64	44	-1	-1	-1	-1	-1	19	-1	-1	8	-1	-1	55	-1	50	25	28	-1	-1	15	-1	-1	-1	27	-1	-1	3	-1	5	2	-1	-1	-1	-1	45	13	24	-1	-1
-1	40	4	-1	-1	12	-1	-1	-1	43	-1	46	17	-1	2	-1	55	-1	-1	-1	7	-1	50	-1	-1	-1	-1	14	-1	-1	57	15	-1	52	56	-1	-1	-1	-1	54	-1	31	-1	-1	-1	-1	41	-1	62	38	23	-1	20	-1	-1	35	61	8	-1	-1	-1	-1	-1	-1
-1	-1	-1	-1	27	45	43	23	-1	-1	-1	-1	-1	39	47	-1	61	63	-1	-1	40	-1	49	-1	7	-1	-1	-1	-1	-1	12	-1	-1	-1	-1	-1	41	-1	13	-1	-1	8	-1	37	44	-1	57	34	-1	55	-1	-1	-1	-1	1	6	-1	-1	33	62	3	2	-1	51
-1	-1	-1	-1	-1	-1	-1	-1	-1	-1	-1	-1	-1	-1	57	-1	-1	-1	-1	-1	10	-1	-1	-1	38	-1	29	45	60	-1	-1	-1	-1	42	-1	26	-1	19	43	15	-1	-1	30	14	-1	1	-1	-1	40	7	-1	52	-1	-1	32	-1	28	53	-1	-1	31	-1	27	18
-1	-1	1	-1	57	49	58	-1	21	-1	-1	-1	61	51	48	-1	-1	12	-1	-1	44	52	-1	15	-1	43	-1	50	30	-1	-1	27	-1	-1	31	-1	-1	-1	11	-1	-1	17	-1	18	-1	-1	-1	23	-1	-1	-1	53	56	47	37	-1	41	-1	-1	-1	34	63	-1	-1
40	-1	-1	28	-1	-1	-1	11	10	-1	-1	60	-1	-1	-1	27	-1	23	-1	-1	-1	-1	-1	-1	-1	30	-1	15	-1	-1	-1	-1	-1	-1	-1	44	56	61	6	-1	-1	-1	17	-1	-1	-1	-1	49	-1	-1	57	35	-1	52	-1	-1	-1	-1	-1	-1	53	12	-1	42
-1	49	-1	-1	-1	-1	23	-1	11	-1	35	-1	-1	-1	56	-1	14	-1	-1	-1	-1	44	-1	31	-1	27	47	1	-1	-1	63	18	-1	-1	41	-1	29	39	58	21	42	-1	-1	-1	-1	-1	-1	13	-1	-1	-1	-1	16	-1	-1	-1	26	51	60	-1	2	54	-1	-1
-1	-1	6	-1	30	-1	62	44	23	-1	26	-1	40	-1	-1	-1	39	-1	18	-1	46	-1	17	37	45	-1	-1	-1	42	-1	-1	-1	8	-1	-1	15	-1	38	-1	16	41	-1	55	19	-1	58	25	-1	-1	47	-1	-1	-1	-1	12	3	-1	-1	-1	-1	-1	34	32	-1
16	-1	-1	-1	56	-1	59	-1	3	-1	-1	52	-1	-1	34	54	-1	-1	28	48	61	-1	-1	-1	-1	-1	-1	-1	-1	-1	-1	-1	-1	-1	-1	-1	-1	-1	50	-1	-1	-1	-1	-1	2	26	-1	39	-1	-1	32	38	60	-1	-1	7	-1	-1	21	55	18	41	-1	64
-1	-1	-1	5	33	54	-1	-1	20	-1	24	28	-1	17	15	-1	-1	64	-1	-1	-1	-1	43	50	19	52	26	49	11	-1	25	7	-1	60	-1	-1	-1	46	-1	42	34	-1	57	38	-1	-1	-1	-1	18	51	-1	-1	63	-1	-1	-1	56	-1	59	48	-1	-1	-1	-1
-1	47	-1	-1	3	-1	37	25	-1	-1	-1	18	-1	-1	63	1	35	-1	-1	26	-1	21	-1	58	48	-1	56	59	-1	38	50	-1	2	14	12	-1	-1	-1	20	-1	-1	-1	-1	43	-1	53	-1	54	24	-1	-1	17	-1	-1	19	-1	-1	-1	-1	-1	-1	-1	-1	-1
-1	55	63	-1	-1	-1	-1	-1	37	-1	-1	-1	29	-1	31	19	27	-1	30	52	16	-1	-1	-1	-1	-1	32	-1	-1	-1	-1	-1	-1	-1	-1	5	24	-1	18	-1	-1	48	21	64	-1	-1	-1	44	-1	-1	-1	-1	-1	9	-1	-1	-1	-1	-1	58	-1	33	-1	-1
64	53	17	18	-1	-1	50	-1	-1	39	-1	-1	51	-1	-1	-1	20	55	8	-1	63	7	5	-1	3	-1	21	6	-1	-1	41	-1	49	48	10	-1	35	-1	-1	-1	-1	56	-1	-1	-1	40	-1	-1	-1	-1	-1	-1	-1	-1	26	-1	-1	-1	-1	24	-1	22	44	57
-1	64	41	-1	35	-1	10	12	-1	-1	-1	-1	-1	-1	45	33	1	44	-1	-1	38	-1	-1	19	-1	-1	-1	13	-1	-1	-1	-1	46	-1	-1	57	61	-1	39	56	-1	22	-1	-1	-1	-1	27	-1	-1	4	28	-1	-1	-1	-1	-1	-1	47	-1	-1	52	-1	42	37
-1	-1	-1	52	-1	-1	-1	54	-1	-1	11	-1	55	-1	-1	-1	63	16	-1	4	33	-1	27	-1	44	15	46	-1	-1	57	-1	-1	-1	-1	-1	-1	47	32	-1	-1	23	-1	-1	-1	62	49	26	-1	-1	-1	3	45	53	29	-1	18	-1	13	-1	-1	-1	-1	-1	-1
47	-1	-1	-1	-1	3	36	59	19	-1	64	61	34	24	-1	-1	-1	45	-1	-1	-1	-1	25	13	33	49	-1	-1	-1	-1	-1	43	48	6	50	-1	60	-1	-1	-1	35	-1	8	-1	-1	38	-1	-1	-1	-1	58	40	27	-1	-1	31	22	-1	-1	-1	-1	-1	-1	55
58	-1	14	20	-1	-1	61	-1	-1	-1	12	35	-1	-1	-1	-1	15	-1	-1	37	3	-1	59	41	-1	-1	18	48	-1	8	42	45	33	64	-1	-1	54	-1	25	24	30	-1	52	-1	6	-1	-1	-1	57	16	7	49	-1	17	-1	-1	46	-1	-1	-1	-1	-1	-1	-1
31	-1	-1	-1	-1	21	1	-1	-1	-1	-1	-1	60	22	37	-1	-1	-1	-1	-1	-1	-1	-1	10	-1	-1	-1	5	-1	-1	38	-1	-1	15	-1	20	-1	12	40	-1	58	41	-1	63	48	-1	-1	-1	-1	-1	43	26	-1	61	-1	-1	54	-1	-1	-1	6	-1	-1	-1
-1	9	-1	34	-1	-1	8	-1	-1	27	-1	-1	-1	49	-1	-1	-1	61	46	-1	-1	5	48	20	-1	3	-1	-1	-1	-1	37	-1	-1	58	29	21	-1	-1	28	-1	44	-1	-1	54	1	-1	32	19	35	-1	-1	56	-1	-1	-1	55	-1	-1	39	-1	24	-1	11	12
-1	16	2	23	-1	-1	-1	-1	-1	42	-1	5	1	-1	10	-1	-1	53	-1	-1	26	55	-1	51	24	32	20	-1	-1	25	-1	60	-1	-1	-1	-1	27	-1	-1	-1	-1	-1	-1	-1	21	-1	61	-1	11	22	47	-1	15	6	54	44	43	9	19	18	-1	48	-1	-1
-1	-1	33	15	-1	-1	-1	-1	48	-1	-1	13	38	52	-1	-1	2	-1	-1	-1	21	47	-1	-1	-1	-1	-1	31	-1	-1	10	-1	3	8	18	-1	43	22	1	-1	-1	-1	42	-1	-1	-1	53	56	-1	-1	41	-1	-1	32	60	-1	-1	-1	-1	44	-1	61	7	-1
-1	4	-1	-1	62	5	42	15	-1	-1	31	-1	-1	-1	-1	-1	-1	27	-1	38	1	8	-1	-1	-1	-1	-1	7	19	13	39	25	-1	43	37	-1	-1	-1	46	-1	18	-1	-1	57	-1	-1	58	32	-1	28	-1	-1	40	-1	23	-1	-1	-1	-1	29	17	21	53	-1
2	-1	16	45	22	18	-1	17	-1	35	-1	-1	-1	-1	-1	-1	21	13	-1	7	-1	-1	61	36	-1	-1	15	-1	59	-1	56	-1	-1	-1	1	60	26	-1	-1	-1	52	27	41	-1	-1	-1	-1	-1	-1	-1	-1	-1	38	-1	48	-1	-1	-1	55	-1	-1	-1	-1	-1
-1	-1	47	6	-1	59	14	-1	-1	-1	54	-1	-1	25	-1	13	12	15	-1	24	-1	-1	58	-1	-1	34	41	-1	8	-1	-1	3	-1	50	-1	38	-1	-1	-1	-1	-1	16	-1	-1	-1	-1	-1	-1	29	-1	-1	-1	44	-1	7	-1	-1	-1	42	-1	48	-1	-1	-1
-1	57	52	-1	-1	37	-1	7	62	32	55	-1	-1	-1	-1	14	-1	-1	-1	54	5	-1	2	-1	-1	-1	-1	27	51	-1	58	50	-1	-1	-1	-1	4	-1	49	18	29	61	-1	48	17	6	56	-1	20	24	53	-1	-1	36	-1	41	45	-1	-1	-1	-1	-1	59	-1
-1	-1	-1	-1	-1	-1	-1	56	-1	-1	-1	19	18	48	-1	-1	57	34	-1	39	31	49	47	44	-1	-1	-1	-1	-1	-1	17	24	-1	-1	45	-1	-1	15	-1	-1	-1	7	2	-1	46	-1	-1	14	-1	-1	-1	-1	62	4	-1	-1	-1	-1	40	-1	-1	-1	51	-1
-1	-1	28	-1	-1	63	31	-1	-1	51	-1	1	4	61	-1	-1	-1	-1	-1	45	-1	-1	-1	26	20	-1	-1	-1	43	-1	40	-1	-1	-1	-1	-1	33	59	-1	39	-1	-1	-1	22	-1	50	-1	-1	49	-1	-1	-1	-1	-1	-1	14	-1	-1	-1	38	57	-1	-1	2
-1	-1	23	-1	25	-1	-1	39	-1	-1	37	-1	-1	45	22	-1	50	-1	-1	-1	-1	60	-1	-1	-1	-1	49	-1	16	62	-1	-1	-1	35	-1	24	55	52	2	-1	12	54	-1	5	-1	-1	-1	-1	63	46	-1	27	30	-1	15	-1	-1	-1	31	-1	14	-1	-1	-1
53	36	29	50	-1	10	30	-1	-1	24	-1	-1	21	3	17	-1	11	-1	6	-1	-1	18	62	-1	54	-1	-1	-1	-1	-1	44	-1	-1	-1	-1	-1	-1	47	-1	22	37	45	13	-1	4	23	-1	51	43	-1	-1	39	25	34	57	61	-1	63	-1	-1	32	9	1	5
-1	-1	10	-1	-1	9	6	-1	47	37	-1	-1	-1	-1	59	-1	19	-1	-1	-1	55	11	34	-1	1	-1	3	-1	12	15	-1	-1	-1	-1	24	-1	-1	-1	-1	2	-1	-1	14	35	31	28	20	-1	5	-1	-1	33	32	-1	-1	-1	-1	-1	-1	-1	-1	23	-1	41
-1	-1	60	41	-1	-1	-1	51	9	-1	-1	-1	42	33	-1	-1	3	-1	12	-1	24	-1	10	-1	-1	-1	50	8	-1	-1	14	-1	-1	22	-1	-1	-1	-1	-1	-1	-1	25	-1	-1	-1	-1	49	-1	58	-1	-1	-1	-1	59	-1	53	-1	57	-1	20	-1	-1	-1	34
-1	-1	46	-1	2	11	7	-1	-1	15	52	-1	-1	-1	16	10	-1	39	-1	-1	36	-1	-1	-1	-1	41	63	-1	32	-1	47	-1	-1	18	14	-1	-1	-1	-1	44	-1	-1	-1	34	-1	30	-1	53	-1	56	42	51	-1	25	29	-1	-1	62	-1	37	38	-1	55	-1
-1	48	42	58	-1	47	-1	-1	-1	-1	-1	22	-1	-1	55	-1	-1	-1	1	8	13	-1	-1	-1	-1	10	-1	-1	25	24	-1	-1	40	41	34	62	31	5	-1	-1	33	64	-1	51	9	-1	52	-1	-1	-1	-1	-1	37	35	39	-1	-1	-1	63	-1	30	-1	-1	-1
-1	-1	13	-1	-1	-1	53	-1	-1	-1	-1	-1	-1	23	49	-1	-1	-1	42	-1	41	-1	26	-1	39	-1	48	-1	-1	30	-1	28	-1	-1	3	-1	50	-1	-1	-1	57	43	-1	-1	-1	-1	-1	61	-1	21	18	-1	7	31	52	47	8	-1	-1	27	-1	32	24	-1
8	-1	-1	-1	18	-1	-1	-1	28	-1	-1	51	30	-1	-1	-1	-1	46	53	-1	-1	50	-1	-1	-1	-1	-1	62	-1	-1	-1	-1	38	12	42	9	-1	-1	36	-1	15	2	-1	-1	32	-1	-1	41	-1	-1	-1	54	-1	-1	61	24	-1	33	-1	-1	22	43	-1	25
-1	-1	-1	39	-1	-1	55	-1	-1	-1	-1	-1	35	-1	-1	-1	-1	-1	17	63	-1	-1	9	-1	-1	-1	-1	-1	-1	45	-1	-1	-1	4	-1	-1	-1	-1	30	1	-1	11	-1	-1	37	-1	-1	-1	-1	50	-1	62	-1	13	16	-1	-1	-1	-1	-1	-1	40	-1	58
14	-1	24	30	-1	-1	29	63	-1	-1	-1	40	-1	-1	7	-1	51	-1	-1	25	58	-1	-1	2	-1	-1	-1	-1	-1	-1	-1	61	-1	-1	-1	-1	53	49	8	47	38	-1	-1	-1	10	54	-1	-1	-1	-1	-1	43	-1	12	-1	-1	-1	35	-1	26	-1	42	-1	56
-1	23	56	-1	-1	15	-1	48	-1	-1	-1	17	36	18	-1	12	60	31	4	1	50	54	-1	-1	5	-1	-1	-1	-1	-1	53	37	-1	-1	30	16	-1	-1	47	59	64	-1	-1	-1	-1	-1	-1	33	32	58	35	-1	-1	22	-1	49	-1	43	-1	34	-1	14	-1	-1
-1	12	36	61	-1	35	-1	-1	-1	11	-1	43	-1	15	-1	-1	-1	-1	-1	55	-1	48	-1	-1	-1	62	14	-1	44	21	-1	-1	24	2	-1	-1	-1	-1	-1	-1	56	53	32	-1	-1	-1	-1	17	-1	-1	29	13	6	-1	-1	-1	-1	37	64	-1	-1	-1	-1	-1
4	-1	-1	-1	49	6	-1	-1	-1	-1	51	-1	-1	-1	-1	61	53	38	-1	29	2	-1	-1	62	-1	-1	-1	-1	-1	-1	48	-1	-1	26	35	-1	-1	17	-1	14	-1	-1	-1	27	-1	44	16	-1	-1	-1	-1	-1	-1	30	-1	21	57	42	-1	-1	56	3	25	-1
-1	29	64	-1	58	19	3	33	2	-1	-1	26	13	21	-1	23	-1	24	15	-1	-1	-1	-1	49	-1	9	-1	-1	-1	52	-1	-1	-1	31	-1	40	-1	37	-1	-1	-1	-1	-1	-1	-1	12	-1	-1	47	-1	27	-1	-1	-1	53	43	-1	11	45	-1	-1	62	5	8
55	27	7	-1	-1	-1	-1	-1	-1	-1	-1	-1	-1	-1	-1	-1	44	-1	-1	-1	52	-1	8	-1	-1	36	30	10	20	41	18	11	53	33	-1	-1	19	-1	60	-1	4	49	25	-1	-1	-1	6	-1	-1	-1	24	-1	-1	-1	-1	16	-1	-1	38	17	-1	-1	31	29
-1	-1	44	-1	-1	53	-1	5	-1	-1	-1	56	39	-1	-1	-1	-1	-1	3	17	-1	25	-1	-1	34	-1	-1	33	61	60	-1	47	4	-1	21	50	15	-1	57	29	-1	-1	-1	-1	13	11	1	30	-1	-1	-1	63	-1	-1	62	52	-1	22	35	19	-1	-1	48	-1
38	-1	-1	-1	-1	8	-1	45	-1	22	-1	-1	-1	-1	-1	30	-1	-1	16	-1	-1	-1	14	39	13	24	-1	-1	3	59	-1	-1	-1	11	-1	12	-1	9	-1	-1	-1	-1	-1	40	-1	-1	63	55	-1	-1	2	42	-1	-1	-1	-1	-1	-1	-1	28	-1	-1	49	-1
-1	-1	50	59	51	-1	60	-1	-1	53	62	-1	-1	47	-1	-1	-1	-1	-1	-1	-1	-1	21	-1	16	-1	64	-1	-1	-1	-1	-1	-1	-1	-1	8	38	20	56	-1	36	-1	61	10	19	9	-1	-1	4	31	40	-1	39	-1	-1	11	18	-1	13	-1	-1	-1	23	24
-1	30	-1	21	12	28	11	-1	50	-1	-1	-1	56	-1	60	-1	38	-1	44	22	-1	-1	46	-1	6	-1	-1	26	10	-1	8	64	-1	-1	62	43	-1	-1	32	-1	51	1	-1	-1	-1	57	-1	-1	3	-1	-1	24	-1	-1	-1	17	-1	-1	27	-1	42	-1	-1	-1
-1	-1	-1	-1	-1	-1	35	49	-1	1	-1	21	57	-1	13	-1	-1	-1	-1	-1	11	-1	3	17	14	50	62	-1	53	16	-1	-1	61	-1	-1	-1	-1	-1	-1	12	59	34	36	-1	-1	45	-1	-1	42	-1	-1	-1	47	-1	-1	-1	38	2	-1	33	-1	-1	-1	-1
-1	50	59	-1	-1	25	-1	-1	-1	14	-1	11	16	30	-1	24	-1	20	-1	23	-1	32	63	-1	-1	-1	57	-1	34	-1	54	52	-1	38	-1	6	8	-1	-1	7	13	-1	12	28	-1	-1	17	21	-1	5	-1	15	49	-1	31	-1	39	55	-1	53	-1	-1	-1	-1
-1	44	-1	-1	14	32	-1	6	-1	-1	22	-1	23	46	-1	-1	-1	-1	59	-1	-1	35	-1	-1	36	-1	-1	37	-1	18	-1	-1	-1	-1	-1	-1	63	-1	-1	64	3	-1	38	-1	-1	8	-1	-1	-1	52	12	41	-1	-1	-1	33	-1	-1	-1	-1	-1	-1	-1	13
-1	18	-1	17	-1	-1	-1	-1	-1	-1	-1	-1	-1	-1	9	-1	-1	-1	27	-1	-1	-1	-1	52	51	58	25	32	-1	-1	-1	-1	-1	-1	-1	-1	22	-1	5	33	49	35	31	-1	42	-1	-1	-1	39	-1	16	59	54	8	-1	-1	21	-1	-1	-1	43	-1	-1	-1
41	-1	-1	-1	-1	-1	15	-1	59	-1	-1	-1	-1	-1	8	-1	-1	43	33	-1	-1	-1	-1	-1	-1	-1	23	-1	55	-1	21	-1	-1	45	4	35	42	-1	52	-1	5	19	-1	44	-1	-1	-1	-1	-1	-1	-1	61	-1	-1	-1	-1	-1	-1	-1	30	26	-1	6	47
-1	-1	-1	-1	-1	13	-1	26	-1	5	33	-1	20	-1	-1	-1	-1	-1	-1	49	-1	4	53	28	-1	-1	-1	-1	38	42	22	-1	47	17	-1	-1	3	-1	-1	-1	-1	18	-1	-1	-1	-1	-1	-1	34	62	19	-1	-1	58	-1	36	-1	23	-1	-1	-1	-1	-1	-1
60	34	61	36	-1	-1	39	-1	43	-1	40	-1	-1	-1	35	52	-1	-1	64	-1	-1	30	12	-1	49	47	-1	-1	-1	-1	-1	-1	16	-1	-1	-1	59	50	-1	55	-1	-1	20	4	-1	-1	-1	58	-1	-1	21	-1	18	2	27	-1	-1	48	-1	-1	25	-1	-1	17
64 
13 62 21 52
62 47 63 2
1 53 59 28
19 59 55 28
34 16 55 42
21 13 22 18
55 58 60 29
31 17 15 53
32 32 60 17
16 27 6 10
10 31 14 41
20 24 18 47
23 56 1 10
7 36 5 45
51 42 44 64
15 20 57 48
35 50 25 22
42 18 59 15
64 34 55 18
8 6 33 57
14 38 11 47
52 41 14 16
51 29 27 28
61 7 14 22
60 18 32 1
9 7 32 64
40 9 24 38
3 5 34 25
22 43 28 29
60 47 20 40
48 10 47 32
11 11 44 9
33 13 12 7
61 34 60 63
52 23 20 47
25 31 41 63
15 23 21 37
40 32 42 15
8 64 26 16
62 26 63 40
1 17 3 45
40 20 7 12
24 11 5 40
61 13 6 32
11 36 53 24
38 8 61 6
4 55 29 25
9 29 56 13
43 4 46 30
28 62 33 58
52 21 25 59
58 64 37 9
23 22 37 44
8 1 9 41
38 23 1 4
23 55 41 19
55 7 43 19
26 62 43 30
1 25 9 18
50 62 41 38
21 8 26 31
24 56 64 41
42 10 41 56
42 57 35 28
